# Solution for model r3_t18_m1_0
# Finished Task: 17 / 18
# Makespan: 703.0, Total Distance: 868.0, Total Time: 0.4370
# R O S F
0 0 4 0.0 0.0
1 1 5 0.0 0.0
2 2 13 0.0 0.0
3 2 14 378.0 406.0
4 0 11 87.0 124.0
5 1 17 282.0 317.0
6 0 18 557.0 583.0
7 0 16 410.0 435.0
8 -1 -1 -1.0 -1.0
9 0 7 381.0 401.0
10 2 3 295.0 315.0
11 0 15 246.0 278.0
12 1 -1 581.0 605.0
13 2 10 235.0 269.0
14 2 19 488.0 511.0
15 0 9 332.0 370.0
16 0 6 493.0 513.0
17 1 20 378.0 417.0
18 0 -1 676.0 703.0
19 2 -1 596.0 623.0
20 1 12 458.0 479.0
